p tdp 83 82
74 67
18 69
9 41
81 29
44 63
59 21
6 24
66 28
17 38
29 52
71 35
38 22
13 39
14 45
77 19
80 57
39 9
1 7
78 51
64 35
47 68
46 83
55 57
2 63
23 4
70 44
15 30
54 26
76 36
21 7
83 1
17 82
83 43
28 31
76 53
73 11
16 32
60 27
19 58
10 37
28 20
2 26
52 40
81 69
6 49
79 73
5 33
32 56
33 42
75 72
77 14
12 45
65 28
25 73
52 42
55 8
32 45
47 66
37 62
50 57
8 62
39 28
31 14
61 75
3 48
26 81
25 8
49 34
36 74
27 36
71 54
64 75
4 19
15 62
10 48
30 6
56 46
17 23
37 26
78 48
57 67
47 74
